db/data/2810425897181101531501161630143614.z3.out
-------------------
2500.249173345
